(set-logic QF_LRA)
(declare-fun r3 () Real)
(declare-fun b3 () Bool)
(declare-fun b0 () Bool)
(declare-fun r0 () Real)
(declare-fun r1 () Real)
(declare-fun r2 () Real)
(assert (let ((.def_0 (* (/ 1130093691727315 2251799813685248) r3))) (let ((.def_1 (* (- (/ 415289889410097 2251799813685248)) r2))) (let ((.def_2 (* (/ 211773413766191 4503599627370496) r1))) (let ((.def_3 (* (- (/ 94242526418783 281474976710656)) r0))) (let ((.def_4 (+ .def_3 .def_2 .def_1 .def_0))) (let ((.def_5 (<= .def_4 (- (/ 263880960476411 281474976710656))))) (let ((.def_6 (not b3))) (let ((.def_7 (or b0 .def_6 .def_5))) .def_7)))))))))
(check-sat)
